NAME : portgen-30-105
COMMENT : portgen N=30, seed=105
TYPE : TSP
DIMENSION : 30
EDGE_WEIGHT_TYPE : EUC_2D
NODE_COORD_SECTION
1 134 117
2 2696 2762
3 1932 2584
4 68 1005
5 3033 594
6 1960 2468
7 2743 336
8 1998 2206
9 1928 1955
10 25 3056
11 478 2815
12 788 2785
13 562 56
14 1912 1465
15 2088 1094
16 1829 690
17 1824 2160
18 7 902
19 2522 2424
20 221 1922
21 2424 679
22 1037 2017
23 1476 405
24 975 421
25 2749 1517
26 1222 3053
27 1365 1835
28 1071 2607
29 1455 536
30 2754 1029
